
Gurobi 9.5.1 (linux64, gurobi_cl) logging started Tue Jan 31 13:07:26 2023

Set parameter Username
Set parameter TimeLimit to value 7200
Set parameter LogFile to value "./log/reopt_p2/problem2_31.log"
Set parameter Threads to value 1
Academic license - for non-commercial use only - expires 2023-07-13
Using license file /opt/gurobi951/linux64/gurobi.lic

Gurobi Optimizer version 9.5.1 build v9.5.1rc2 (linux64)
Copyright (c) 2022, Gurobi Optimization, LLC

Read MPS format model from file ./ins/reopt_p2/problem2_31.mps.mps.gz
Reading time = 1.74 seconds
problem_: 363932 rows, 971354 columns, 2119118 nonzeros
Thread count: 112 physical cores, 224 logical processors, using up to 1 threads
Optimize a model with 363932 rows, 971354 columns and 2119118 nonzeros
Model fingerprint: 0x345f84dd
Variable types: 0 continuous, 971354 integer (971354 binary)
Coefficient statistics:
  Matrix range     [1e-01, 2e+02]
  Objective range  [1e-01, 9e+01]
  Bounds range     [1e+00, 1e+00]
  RHS range        [1e+00, 1e+00]
Presolve removed 832 rows and 937 columns (presolve time = 5s) ...
Presolve removed 1070 rows and 1769 columns (presolve time = 11s) ...
Presolve removed 1070 rows and 1769 columns (presolve time = 226s) ...
Presolve removed 1070 rows and 1769 columns
Presolve time: 227.02s
Presolved: 362862 rows, 969585 columns, 2116384 nonzeros
Variable types: 0 continuous, 969585 integer (969585 binary)
Found heuristic solution: objective 522025.41400

Root simplex log...

Iteration    Objective       Primal Inf.    Dual Inf.      Time
       0    3.3129941e+04   2.378000e+03   0.000000e+00    244s
    7124    4.7241072e+04   0.000000e+00   0.000000e+00    245s

Use crossover to convert LP symmetric solution to basic solution...

Root crossover log...

       0 DPushes remaining with DInf 0.0000000e+00               245s

       0 PPushes remaining with PInf 0.0000000e+00               245s

  Push phase complete: Pinf 0.0000000e+00, Dinf 4.6354667e-11    245s


Root simplex log...

Iteration    Objective       Primal Inf.    Dual Inf.      Time
    7721    4.7241072e+04   0.000000e+00   0.000000e+00    245s
    7721    4.7241072e+04   0.000000e+00   0.000000e+00    245s

Root relaxation: objective 4.724107e+04, 7721 iterations, 3.50 seconds (1.90 work units)

    Nodes    |    Current Node    |     Objective Bounds      |     Work
 Expl Unexpl |  Obj  Depth IntInf | Incumbent    BestBd   Gap | It/Node Time

     0     0 47241.0715    0 9617 522025.414 47241.0715  91.0%     -  327s
H    0     0                    244938.25000 47241.0715  80.7%     -  328s
     0     0 52124.7146    0 12638 244938.250 52124.7146  78.7%     -  367s
H    0     0                    241054.72400 52124.7146  78.4%     -  378s
     0     0 52135.1113    0 12679 241054.724 52135.1113  78.4%     -  440s
     0     0 56084.5763    0 14714 241054.724 56084.5763  76.7%     -  637s
     0     0 56431.4996    0 19599 241054.724 56431.4996  76.6%     -  775s
     0     0 56444.9090    0 18146 241054.724 56444.9090  76.6%     -  801s
     0     0 56450.5120    0 17901 241054.724 56450.5120  76.6%     -  848s
     0     0 56451.5649    0 17906 241054.724 56451.5649  76.6%     -  851s
     0     0 58935.8157    0 32065 241054.724 58935.8157  75.6%     - 2021s
H    0     0                    239487.87200 58935.8157  75.4%     - 2040s
     0     0 59725.5173    0 41080 239487.872 59725.5173  75.1%     - 2660s
     0     0 59873.1364    0 21054 239487.872 59873.1364  75.0%     - 2805s
     0     0 59961.5403    0 26385 239487.872 59961.5403  75.0%     - 2942s
     0     0 59989.9411    0 25667 239487.872 59989.9411  75.0%     - 2991s
     0     0 59997.0213    0 24877 239487.872 59997.0213  74.9%     - 3007s
     0     0 60001.6310    0 24129 239487.872 60001.6310  74.9%     - 3016s
     0     0 60001.6828    0 24189 239487.872 60001.6828  74.9%     - 3018s
     0     0 62211.8694    0 81780 239487.872 62211.8694  74.0%     - 5256s
H    0     0                    239472.28400 62211.8694  74.0%     - 5260s
     0     0          -    0      239472.284 62211.8694  74.0%     - 7200s

Cutting planes:
  Gomory: 222
  Lift-and-project: 4
  Cover: 16642
  Clique: 5957
  MIR: 4161
  StrongCG: 998

Explored 1 nodes (626502 simplex iterations) in 7200.09 seconds (5371.13 work units)
Thread count was 1 (of 224 available processors)

Solution count 5: 239472 239488 241055 ... 522025

Time limit reached
Best objective 2.394722840000e+05, best bound 6.221186935185e+04, gap 74.0213%

Gurobi 10.0.2 (linux64) logging started Tue Sep  5 17:38:00 2023

Set parameter LogFile to value "../reopt_p2/problem2_31.log"
Set parameter TimeLimit to value 600
Gurobi Optimizer version 10.0.2 build v10.0.2rc0 (linux64)

CPU model: Intel(R) Xeon(R) Platinum 8280 CPU @ 2.70GHz, instruction set [SSE2|AVX|AVX2|AVX512]
Thread count: 112 physical cores, 112 logical processors, using up to 32 threads

Optimize a model with 363932 rows, 971354 columns and 2119118 nonzeros
Model fingerprint: 0x345f84dd
Variable types: 0 continuous, 971354 integer (971354 binary)
Coefficient statistics:
  Matrix range     [1e-01, 2e+02]
  Objective range  [1e-01, 9e+01]
  Bounds range     [1e+00, 1e+00]
  RHS range        [1e+00, 1e+00]
Presolve removed 832 rows and 937 columns (presolve time = 5s) ...
Presolve removed 1070 rows and 1769 columns (presolve time = 10s) ...
Presolve removed 1070 rows and 1769 columns (presolve time = 341s) ...
Presolve removed 1070 rows and 1769 columns
Presolve time: 342.11s
Presolved: 362862 rows, 969585 columns, 2116384 nonzeros
Variable types: 0 continuous, 969585 integer (969585 binary)
Found heuristic solution: objective 522025.41400
Deterministic concurrent LP optimizer: primal simplex, dual simplex, and barrier
Showing barrier log only...

Root barrier log...

Ordering time: 0.14s

Barrier statistics:
 Dense cols : 55
 AA' NZ     : 1.188e+06
 Factor NZ  : 2.814e+06 (roughly 50 MB of memory)
 Factor Ops : 4.511e+08 (less than 1 second per iteration)
 Threads    : 30

                  Objective                Residual
Iter       Primal          Dual         Primal    Dual     Compl     Time
   0   2.94760113e+06 -1.80635060e+07  4.64e+01 3.02e+01  1.02e+03   368s
   1   1.04754640e+06 -1.11177416e+07  1.53e+01 3.84e-13  3.26e+02   368s
   2   2.49672721e+05 -3.64323141e+06  2.50e+00 4.03e-13  6.05e+01   368s
   3   8.40301325e+04 -4.37205965e+05  2.64e-14 3.18e-13  5.20e+00   368s

Barrier performed 3 iterations in 367.87 seconds (125.06 work units)
Barrier solve interrupted - model solved by another algorithm

Concurrent spin time: 0.20s (can be avoided by choosing Method=3)

Solved with dual simplex

Use crossover to convert LP symmetric solution to basic solution...

Root crossover log...

       0 DPushes remaining with DInf 0.0000000e+00               368s

       0 PPushes remaining with PInf 0.0000000e+00               368s

  Push phase complete: Pinf 0.0000000e+00, Dinf 4.6354667e-11    368s


Root simplex log...

Iteration    Objective       Primal Inf.    Dual Inf.      Time
    7721    4.7241072e+04   0.000000e+00   0.000000e+00    368s
    7721    4.7241072e+04   0.000000e+00   0.000000e+00    369s

Root relaxation: objective 4.724107e+04, 7721 iterations, 4.85 seconds (1.90 work units)
Total elapsed time = 371.30s

    Nodes    |    Current Node    |     Objective Bounds      |     Work
 Expl Unexpl |  Obj  Depth IntInf | Incumbent    BestBd   Gap | It/Node Time

     0     0 47241.0715    0 9617 522025.414 47241.0715  91.0%     -  461s
H    0     0                    244938.25000 47241.0715  80.7%     -  461s
     0     0 52124.7146    0 12638 244938.250 52124.7146  78.7%     -  535s
H    0     0                    241054.72400 52124.7146  78.4%     -  557s
     0     0 52135.1113    0 12679 241054.724 52135.1113  78.4%     -  608s

Cutting planes:
  Gomory: 139
  Cover: 15211
  Clique: 1511
  MIR: 1202
  StrongCG: 953

Explored 1 nodes (22325 simplex iterations) in 612.58 seconds (167.69 work units)
Thread count was 32 (of 112 available processors)

Solution count 3: 241055 244938 522025 

Time limit reached
Best objective 2.410547240000e+05, best bound 5.213511131561e+04, gap 78.3721%

Gurobi 10.0.2 (linux64) logging started Wed Sep  6 13:59:27 2023

Set parameter LogFile to value "../reopt_p2/problem2_31.log"
Set parameter TimeLimit to value 600
Set parameter Threads to value 30
Gurobi Optimizer version 10.0.2 build v10.0.2rc0 (linux64)

CPU model: Intel(R) Xeon(R) Platinum 8280 CPU @ 2.70GHz, instruction set [SSE2|AVX|AVX2|AVX512]
Thread count: 112 physical cores, 112 logical processors, using up to 30 threads

Optimize a model with 363932 rows, 971354 columns and 2119118 nonzeros
Model fingerprint: 0x345f84dd
Variable types: 0 continuous, 971354 integer (971354 binary)
Coefficient statistics:
  Matrix range     [1e-01, 2e+02]
  Objective range  [1e-01, 9e+01]
  Bounds range     [1e+00, 1e+00]
  RHS range        [1e+00, 1e+00]
Presolve removed 1070 rows and 1769 columns (presolve time = 5s) ...
Presolve removed 1070 rows and 1769 columns (presolve time = 117s) ...
Presolve removed 1070 rows and 1769 columns
Presolve time: 117.31s
Presolved: 362862 rows, 969585 columns, 2116384 nonzeros
Variable types: 0 continuous, 969585 integer (969585 binary)
Found heuristic solution: objective 522025.41400
Deterministic concurrent LP optimizer: primal simplex, dual simplex, and barrier
Showing barrier log only...

Root barrier log...

Ordering time: 0.10s

Barrier statistics:
 Dense cols : 55
 AA' NZ     : 1.188e+06
 Factor NZ  : 2.814e+06 (roughly 50 MB of memory)
 Factor Ops : 4.511e+08 (less than 1 second per iteration)
 Threads    : 28

                  Objective                Residual
Iter       Primal          Dual         Primal    Dual     Compl     Time
   0   2.94760113e+06 -1.80635060e+07  4.64e+01 3.02e+01  1.02e+03   133s
   1   1.04754640e+06 -1.11177416e+07  1.53e+01 3.84e-13  3.26e+02   133s
   2   2.49672721e+05 -3.64323141e+06  2.50e+00 1.03e-12  6.05e+01   133s
   3   8.40301325e+04 -4.37205965e+05  2.95e-14 3.50e-13  5.20e+00   133s

Barrier performed 3 iterations in 132.97 seconds (125.06 work units)
Barrier solve interrupted - model solved by another algorithm

Concurrent spin time: 0.15s (can be avoided by choosing Method=3)

Solved with dual simplex

Use crossover to convert LP symmetric solution to basic solution...

Root crossover log...

       0 DPushes remaining with DInf 0.0000000e+00               133s

       0 PPushes remaining with PInf 0.0000000e+00               133s

  Push phase complete: Pinf 0.0000000e+00, Dinf 4.6354667e-11    133s


Root simplex log...

Iteration    Objective       Primal Inf.    Dual Inf.      Time
    7721    4.7241072e+04   0.000000e+00   0.000000e+00    133s
    7721    4.7241072e+04   0.000000e+00   0.000000e+00    134s

Root relaxation: objective 4.724107e+04, 7721 iterations, 3.08 seconds (1.90 work units)

    Nodes    |    Current Node    |     Objective Bounds      |     Work
 Expl Unexpl |  Obj  Depth IntInf | Incumbent    BestBd   Gap | It/Node Time

     0     0 47241.0715    0 9617 522025.414 47241.0715  91.0%     -  184s
H    0     0                    244938.25000 47241.0715  80.7%     -  185s
     0     0 52124.7146    0 12638 244938.250 52124.7146  78.7%     -  217s
H    0     0                    241054.72400 52124.7146  78.4%     -  227s
     0     0 52135.1113    0 12679 241054.724 52135.1113  78.4%     -  263s
     0     0 56080.3220    0 14706 241054.724 56080.3220  76.7%     -  343s
     0     0 56428.0073    0 19593 241054.724 56428.0073  76.6%     -  404s
     0     0 56441.6151    0 18411 241054.724 56441.6151  76.6%     -  420s
     0     0 56445.4051    0 17894 241054.724 56445.4051  76.6%     -  435s
     0     0 56447.6063    0 17896 241054.724 56447.6063  76.6%     -  459s
     0     0 56453.5624    0 17906 241054.724 56453.5624  76.6%     -  461s
     0     0          -    0      241054.724 56453.5624  76.6%     -  600s

Cutting planes:
  Gomory: 158
  Lift-and-project: 1
  Cover: 17771
  Clique: 4746
  MIR: 4293
  StrongCG: 2271

Explored 1 nodes (98190 simplex iterations) in 600.11 seconds (593.92 work units)
Thread count was 30 (of 112 available processors)

Solution count 3: 241055 244938 522025 

Time limit reached
Best objective 2.410547240000e+05, best bound 5.645356237790e+04, gap 76.5806%
